c generated by sgen
p cnf 101 212
-2 -3 -4 0
-1 -3 -4 0
-1 -2 -4 0
-1 -2 -3 0
-6 -7 -8 0
-5 -7 -8 0
-5 -6 -8 0
-5 -6 -7 0
-10 -11 -12 0
-9 -11 -12 0
-9 -10 -12 0
-9 -10 -11 0
-14 -15 -16 0
-13 -15 -16 0
-13 -14 -16 0
-13 -14 -15 0
-18 -19 -20 0
-17 -19 -20 0
-17 -18 -20 0
-17 -18 -19 0
-22 -23 -24 0
-21 -23 -24 0
-21 -22 -24 0
-21 -22 -23 0
-26 -27 -28 0
-25 -27 -28 0
-25 -26 -28 0
-25 -26 -27 0
-30 -31 -32 0
-29 -31 -32 0
-29 -30 -32 0
-29 -30 -31 0
-34 -35 -36 0
-33 -35 -36 0
-33 -34 -36 0
-33 -34 -35 0
-38 -39 -40 0
-37 -39 -40 0
-37 -38 -40 0
-37 -38 -39 0
-42 -43 -44 0
-41 -43 -44 0
-41 -42 -44 0
-41 -42 -43 0
-46 -47 -48 0
-45 -47 -48 0
-45 -46 -48 0
-45 -46 -47 0
-50 -51 -52 0
-49 -51 -52 0
-49 -50 -52 0
-49 -50 -51 0
-54 -55 -56 0
-53 -55 -56 0
-53 -54 -56 0
-53 -54 -55 0
-58 -59 -60 0
-57 -59 -60 0
-57 -58 -60 0
-57 -58 -59 0
-62 -63 -64 0
-61 -63 -64 0
-61 -62 -64 0
-61 -62 -63 0
-66 -67 -68 0
-65 -67 -68 0
-65 -66 -68 0
-65 -66 -67 0
-70 -71 -72 0
-69 -71 -72 0
-69 -70 -72 0
-69 -70 -71 0
-74 -75 -76 0
-73 -75 -76 0
-73 -74 -76 0
-73 -74 -75 0
-78 -79 -80 0
-77 -79 -80 0
-77 -78 -80 0
-77 -78 -79 0
-82 -83 -84 0
-81 -83 -84 0
-81 -82 -84 0
-81 -82 -83 0
-86 -87 -88 0
-85 -87 -88 0
-85 -86 -88 0
-85 -86 -87 0
-90 -91 -92 0
-89 -91 -92 0
-89 -90 -92 0
-89 -90 -91 0
-94 -95 -96 0
-93 -95 -96 0
-93 -94 -96 0
-93 -94 -95 0
-97 -98 -99 0
-97 -98 -100 0
-97 -98 -101 0
-97 -99 -100 0
-97 -99 -101 0
-97 -100 -101 0
-98 -99 -100 0
-98 -99 -101 0
-98 -100 -101 0
-99 -100 -101 0
34 2 32 0
87 2 32 0
87 34 32 0
87 34 2 0
27 13 92 0
59 13 92 0
59 27 92 0
59 27 13 0
35 25 72 0
56 25 72 0
56 35 72 0
56 35 25 0
7 18 53 0
95 18 53 0
95 7 53 0
95 7 18 0
24 75 99 0
78 75 99 0
78 24 99 0
78 24 75 0
42 17 36 0
89 17 36 0
89 42 36 0
89 42 17 0
30 20 21 0
49 20 21 0
49 30 21 0
49 30 20 0
82 67 74 0
31 67 74 0
31 82 74 0
31 82 67 0
51 55 97 0
41 55 97 0
41 51 97 0
41 51 55 0
23 9 66 0
33 9 66 0
33 23 66 0
33 23 9 0
4 91 61 0
100 91 61 0
100 4 61 0
100 4 91 0
37 54 57 0
22 54 57 0
22 37 57 0
22 37 54 0
40 14 76 0
19 14 76 0
19 40 76 0
19 40 14 0
96 62 15 0
86 62 15 0
86 96 15 0
86 96 62 0
45 94 3 0
28 94 3 0
28 45 3 0
28 45 94 0
26 65 6 0
64 65 6 0
64 26 6 0
64 26 65 0
80 71 11 0
85 71 11 0
85 80 11 0
85 80 71 0
44 69 39 0
1 69 39 0
1 44 39 0
1 44 69 0
101 81 93 0
70 81 93 0
70 101 93 0
70 101 81 0
58 88 83 0
47 88 83 0
47 58 83 0
47 58 88 0
29 10 60 0
98 10 60 0
98 29 60 0
98 29 10 0
46 73 63 0
52 73 63 0
52 46 63 0
52 46 73 0
12 48 43 0
5 48 43 0
5 12 43 0
5 12 48 0
16 79 8 0
84 79 8 0
84 16 8 0
84 16 79 0
50 38 68 0
50 38 77 0
50 38 90 0
50 68 77 0
50 68 90 0
50 77 90 0
38 68 77 0
38 68 90 0
38 77 90 0
68 77 90 0
